language Essence 1.3

letting pain be 
[

    [
        [ [ (({2}, 5), 8), (({1}, 4), 9) ], [ (({1}, 4), 8), (({1}, 4), 8) ] ],
        [ [ (({1}, 4), 8), (({1}, 4), 8) ], [ (({2}, 6), 8), (({3}, 4), 10) ] ]
    ],

    [
        [ [ (({3}, 6), 10), (({2}, 5), 8) ], [ (({1}, 4), 8), (({1}, 4), 8) ] ],
        [ [ (({1}, 5), 10 ), (({1}, 4), 9) ], [ (({1}, 4), 8), (({1}, 4), 8) ] ]
    ]

]
